
Gurobi 9.5.0 (win64, Python) logging started Fri May 13 17:43:36 2022

Set parameter Username
Set parameter LogFile to value "gurobi.log"
Academic license - for non-commercial use only - expires 2022-07-11
